(declare-const p1_c0 Bool)
(declare-const p1_c1 Bool)
(declare-const p1_c2 Bool)
(declare-const p1_c3 Bool)
(declare-const p1_c4 Bool)
(declare-const p1_c5 Bool)
(declare-const p1_c6 Bool)
(declare-const p1_c7 Bool)
(declare-const p2_c0 Bool)
(declare-const p2_c1 Bool)
(declare-const p2_c2 Bool)
(declare-const p2_c3 Bool)
(declare-const p2_c4 Bool)
(declare-const p2_c5 Bool)
(declare-const p2_c6 Bool)
(declare-const p2_c7 Bool)
(declare-const p3_c0 Bool)
(declare-const p3_c1 Bool)
(declare-const p3_c2 Bool)
(declare-const p3_c3 Bool)
(declare-const p3_c4 Bool)
(declare-const p3_c5 Bool)
(declare-const p3_c6 Bool)
(declare-const p3_c7 Bool)
(declare-const p4_c0 Bool)
(declare-const p4_c1 Bool)
(declare-const p4_c2 Bool)
(declare-const p4_c3 Bool)
(declare-const p4_c4 Bool)
(declare-const p4_c5 Bool)
(declare-const p4_c6 Bool)
(declare-const p4_c7 Bool)
(declare-const p5_c0 Bool)
(declare-const p5_c1 Bool)
(declare-const p5_c2 Bool)
(declare-const p5_c3 Bool)
(declare-const p5_c4 Bool)
(declare-const p5_c5 Bool)
(declare-const p5_c6 Bool)
(declare-const p5_c7 Bool)
(declare-const p6_c0 Bool)
(declare-const p6_c1 Bool)
(declare-const p6_c2 Bool)
(declare-const p6_c3 Bool)
(declare-const p6_c4 Bool)
(declare-const p6_c5 Bool)
(declare-const p6_c6 Bool)
(declare-const p6_c7 Bool)
(declare-const p7_c0 Bool)
(declare-const p7_c1 Bool)
(declare-const p7_c2 Bool)
(declare-const p7_c3 Bool)
(declare-const p7_c4 Bool)
(declare-const p7_c5 Bool)
(declare-const p7_c6 Bool)
(declare-const p7_c7 Bool)
(declare-const p8_c0 Bool)
(declare-const p8_c1 Bool)
(declare-const p8_c2 Bool)
(declare-const p8_c3 Bool)
(declare-const p8_c4 Bool)
(declare-const p8_c5 Bool)
(declare-const p8_c6 Bool)
(declare-const p8_c7 Bool)
(assert (and (or p1_c0 p1_c1 p1_c2 p1_c3 p1_c4 p1_c5 p1_c6 p1_c7) (or p2_c0 p2_c1 p2_c2 p2_c3 p2_c4 p2_c5 p2_c6 p2_c7) (or p3_c0 p3_c1 p3_c2 p3_c3 p3_c4 p3_c5 p3_c6 p3_c7) (or p4_c0 p4_c1 p4_c2 p4_c3 p4_c4 p4_c5 p4_c6 p4_c7) (or p5_c0 p5_c1 p5_c2 p5_c3 p5_c4 p5_c5 p5_c6 p5_c7) (or p6_c0 p6_c1 p6_c2 p6_c3 p6_c4 p6_c5 p6_c6 p6_c7) (or p7_c0 p7_c1 p7_c2 p7_c3 p7_c4 p7_c5 p7_c6 p7_c7) (or p8_c0 p8_c1 p8_c2 p8_c3 p8_c4 p8_c5 p8_c6 p8_c7)))
(assert (and (implies p1_c0 (and (not p2_c0) (not p3_c0) (not p4_c0) (not p5_c0) (not p6_c0) (not p7_c0) (not p8_c0))) (implies p2_c0 (and (not p1_c0) (not p3_c0) (not p4_c0) (not p5_c0) (not p6_c0) (not p7_c0) (not p8_c0))) (implies p3_c0 (and (not p1_c0) (not p2_c0) (not p4_c0) (not p5_c0) (not p6_c0) (not p7_c0) (not p8_c0))) (implies p4_c0 (and (not p1_c0) (not p2_c0) (not p3_c0) (not p5_c0) (not p6_c0) (not p7_c0) (not p8_c0))) (implies p5_c0 (and (not p1_c0) (not p2_c0) (not p3_c0) (not p4_c0) (not p6_c0) (not p7_c0) (not p8_c0))) (implies p6_c0 (and (not p1_c0) (not p2_c0) (not p3_c0) (not p4_c0) (not p5_c0) (not p7_c0) (not p8_c0))) (implies p7_c0 (and (not p1_c0) (not p2_c0) (not p3_c0) (not p4_c0) (not p5_c0) (not p6_c0) (not p8_c0))) (implies p8_c0 (and (not p1_c0) (not p2_c0) (not p3_c0) (not p4_c0) (not p5_c0) (not p6_c0) (not p7_c0)))))
(assert (and (implies p1_c1 (and (not p2_c1) (not p3_c1) (not p4_c1) (not p5_c1) (not p6_c1) (not p7_c1) (not p8_c1))) (implies p2_c1 (and (not p1_c1) (not p3_c1) (not p4_c1) (not p5_c1) (not p6_c1) (not p7_c1) (not p8_c1))) (implies p3_c1 (and (not p1_c1) (not p2_c1) (not p4_c1) (not p5_c1) (not p6_c1) (not p7_c1) (not p8_c1))) (implies p4_c1 (and (not p1_c1) (not p2_c1) (not p3_c1) (not p5_c1) (not p6_c1) (not p7_c1) (not p8_c1))) (implies p5_c1 (and (not p1_c1) (not p2_c1) (not p3_c1) (not p4_c1) (not p6_c1) (not p7_c1) (not p8_c1))) (implies p6_c1 (and (not p1_c1) (not p2_c1) (not p3_c1) (not p4_c1) (not p5_c1) (not p7_c1) (not p8_c1))) (implies p7_c1 (and (not p1_c1) (not p2_c1) (not p3_c1) (not p4_c1) (not p5_c1) (not p6_c1) (not p8_c1))) (implies p8_c1 (and (not p1_c1) (not p2_c1) (not p3_c1) (not p4_c1) (not p5_c1) (not p6_c1) (not p7_c1)))))
(assert (and (implies p1_c2 (and (not p2_c2) (not p3_c2) (not p4_c2) (not p5_c2) (not p6_c2) (not p7_c2) (not p8_c2))) (implies p2_c2 (and (not p1_c2) (not p3_c2) (not p4_c2) (not p5_c2) (not p6_c2) (not p7_c2) (not p8_c2))) (implies p3_c2 (and (not p1_c2) (not p2_c2) (not p4_c2) (not p5_c2) (not p6_c2) (not p7_c2) (not p8_c2))) (implies p4_c2 (and (not p1_c2) (not p2_c2) (not p3_c2) (not p5_c2) (not p6_c2) (not p7_c2) (not p8_c2))) (implies p5_c2 (and (not p1_c2) (not p2_c2) (not p3_c2) (not p4_c2) (not p6_c2) (not p7_c2) (not p8_c2))) (implies p6_c2 (and (not p1_c2) (not p2_c2) (not p3_c2) (not p4_c2) (not p5_c2) (not p7_c2) (not p8_c2))) (implies p7_c2 (and (not p1_c2) (not p2_c2) (not p3_c2) (not p4_c2) (not p5_c2) (not p6_c2) (not p8_c2))) (implies p8_c2 (and (not p1_c2) (not p2_c2) (not p3_c2) (not p4_c2) (not p5_c2) (not p6_c2) (not p7_c2)))))
(assert (and (implies p1_c3 (and (not p2_c3) (not p3_c3) (not p4_c3) (not p5_c3) (not p6_c3) (not p7_c3) (not p8_c3))) (implies p2_c3 (and (not p1_c3) (not p3_c3) (not p4_c3) (not p5_c3) (not p6_c3) (not p7_c3) (not p8_c3))) (implies p3_c3 (and (not p1_c3) (not p2_c3) (not p4_c3) (not p5_c3) (not p6_c3) (not p7_c3) (not p8_c3))) (implies p4_c3 (and (not p1_c3) (not p2_c3) (not p3_c3) (not p5_c3) (not p6_c3) (not p7_c3) (not p8_c3))) (implies p5_c3 (and (not p1_c3) (not p2_c3) (not p3_c3) (not p4_c3) (not p6_c3) (not p7_c3) (not p8_c3))) (implies p6_c3 (and (not p1_c3) (not p2_c3) (not p3_c3) (not p4_c3) (not p5_c3) (not p7_c3) (not p8_c3))) (implies p7_c3 (and (not p1_c3) (not p2_c3) (not p3_c3) (not p4_c3) (not p5_c3) (not p6_c3) (not p8_c3))) (implies p8_c3 (and (not p1_c3) (not p2_c3) (not p3_c3) (not p4_c3) (not p5_c3) (not p6_c3) (not p7_c3)))))
(assert (and (implies p1_c4 (and (not p2_c4) (not p3_c4) (not p4_c4) (not p5_c4) (not p6_c4) (not p7_c4) (not p8_c4))) (implies p2_c4 (and (not p1_c4) (not p3_c4) (not p4_c4) (not p5_c4) (not p6_c4) (not p7_c4) (not p8_c4))) (implies p3_c4 (and (not p1_c4) (not p2_c4) (not p4_c4) (not p5_c4) (not p6_c4) (not p7_c4) (not p8_c4))) (implies p4_c4 (and (not p1_c4) (not p2_c4) (not p3_c4) (not p5_c4) (not p6_c4) (not p7_c4) (not p8_c4))) (implies p5_c4 (and (not p1_c4) (not p2_c4) (not p3_c4) (not p4_c4) (not p6_c4) (not p7_c4) (not p8_c4))) (implies p6_c4 (and (not p1_c4) (not p2_c4) (not p3_c4) (not p4_c4) (not p5_c4) (not p7_c4) (not p8_c4))) (implies p7_c4 (and (not p1_c4) (not p2_c4) (not p3_c4) (not p4_c4) (not p5_c4) (not p6_c4) (not p8_c4))) (implies p8_c4 (and (not p1_c4) (not p2_c4) (not p3_c4) (not p4_c4) (not p5_c4) (not p6_c4) (not p7_c4)))))
(assert (and (implies p1_c5 (and (not p2_c5) (not p3_c5) (not p4_c5) (not p5_c5) (not p6_c5) (not p7_c5) (not p8_c5))) (implies p2_c5 (and (not p1_c5) (not p3_c5) (not p4_c5) (not p5_c5) (not p6_c5) (not p7_c5) (not p8_c5))) (implies p3_c5 (and (not p1_c5) (not p2_c5) (not p4_c5) (not p5_c5) (not p6_c5) (not p7_c5) (not p8_c5))) (implies p4_c5 (and (not p1_c5) (not p2_c5) (not p3_c5) (not p5_c5) (not p6_c5) (not p7_c5) (not p8_c5))) (implies p5_c5 (and (not p1_c5) (not p2_c5) (not p3_c5) (not p4_c5) (not p6_c5) (not p7_c5) (not p8_c5))) (implies p6_c5 (and (not p1_c5) (not p2_c5) (not p3_c5) (not p4_c5) (not p5_c5) (not p7_c5) (not p8_c5))) (implies p7_c5 (and (not p1_c5) (not p2_c5) (not p3_c5) (not p4_c5) (not p5_c5) (not p6_c5) (not p8_c5))) (implies p8_c5 (and (not p1_c5) (not p2_c5) (not p3_c5) (not p4_c5) (not p5_c5) (not p6_c5) (not p7_c5)))))
(assert (and (implies p1_c6 (and (not p2_c6) (not p3_c6) (not p4_c6) (not p5_c6) (not p6_c6) (not p7_c6) (not p8_c6))) (implies p2_c6 (and (not p1_c6) (not p3_c6) (not p4_c6) (not p5_c6) (not p6_c6) (not p7_c6) (not p8_c6))) (implies p3_c6 (and (not p1_c6) (not p2_c6) (not p4_c6) (not p5_c6) (not p6_c6) (not p7_c6) (not p8_c6))) (implies p4_c6 (and (not p1_c6) (not p2_c6) (not p3_c6) (not p5_c6) (not p6_c6) (not p7_c6) (not p8_c6))) (implies p5_c6 (and (not p1_c6) (not p2_c6) (not p3_c6) (not p4_c6) (not p6_c6) (not p7_c6) (not p8_c6))) (implies p6_c6 (and (not p1_c6) (not p2_c6) (not p3_c6) (not p4_c6) (not p5_c6) (not p7_c6) (not p8_c6))) (implies p7_c6 (and (not p1_c6) (not p2_c6) (not p3_c6) (not p4_c6) (not p5_c6) (not p6_c6) (not p8_c6))) (implies p8_c6 (and (not p1_c6) (not p2_c6) (not p3_c6) (not p4_c6) (not p5_c6) (not p6_c6) (not p7_c6)))))
(assert (and (implies p1_c7 (and (not p2_c7) (not p3_c7) (not p4_c7) (not p5_c7) (not p6_c7) (not p7_c7) (not p8_c7))) (implies p2_c7 (and (not p1_c7) (not p3_c7) (not p4_c7) (not p5_c7) (not p6_c7) (not p7_c7) (not p8_c7))) (implies p3_c7 (and (not p1_c7) (not p2_c7) (not p4_c7) (not p5_c7) (not p6_c7) (not p7_c7) (not p8_c7))) (implies p4_c7 (and (not p1_c7) (not p2_c7) (not p3_c7) (not p5_c7) (not p6_c7) (not p7_c7) (not p8_c7))) (implies p5_c7 (and (not p1_c7) (not p2_c7) (not p3_c7) (not p4_c7) (not p6_c7) (not p7_c7) (not p8_c7))) (implies p6_c7 (and (not p1_c7) (not p2_c7) (not p3_c7) (not p4_c7) (not p5_c7) (not p7_c7) (not p8_c7))) (implies p7_c7 (and (not p1_c7) (not p2_c7) (not p3_c7) (not p4_c7) (not p5_c7) (not p6_c7) (not p8_c7))) (implies p8_c7 (and (not p1_c7) (not p2_c7) (not p3_c7) (not p4_c7) (not p5_c7) (not p6_c7) (not p7_c7)))))
(assert (or p1_c2 p1_c3 p1_c4))
(assert (or p2_c6 p2_c7))
(assert (or p3_c6 p3_c7))
(assert (and (implies p4_c0 (or p1_c0 p1_c1)) (implies p4_c1 (or p1_c0 p1_c1)) (implies p4_c2 (or p1_c2 p1_c3 p1_c4)) (implies p4_c3 (or p1_c2 p1_c3 p1_c4)) (implies p4_c4 (or p1_c2 p1_c3 p1_c4)) (implies p4_c5 (or p1_c5)) (implies p4_c6 (or p1_c6 p1_c7)) (implies p4_c7 (or p1_c6 p1_c7))))
(assert (or p5_c0 p5_c1))
(assert (and (implies p6_c0 (or p5_c5)) (implies p6_c1 (or p5_c5)) (implies p6_c2 (or p5_c6 p5_c7)) (implies p6_c3 (or p5_c6 p5_c7)) (implies p6_c4 (or p5_c6 p5_c7)) (implies p6_c5 (or p5_c0 p5_c1)) (implies p6_c6 (or p5_c2 p5_c3 p5_c4)) (implies p6_c7 (or p5_c2 p5_c3 p5_c4))))
(assert (and (implies p7_c0 (or p6_c5)) (implies p7_c1 (or p6_c5)) (implies p7_c2 (or p6_c6 p6_c7)) (implies p7_c3 (or p6_c6 p6_c7)) (implies p7_c4 (or p6_c6 p6_c7)) (implies p7_c5 (or p6_c0 p6_c1)) (implies p7_c6 (or p6_c2 p6_c3 p6_c4)) (implies p7_c7 (or p6_c2 p6_c3 p6_c4))))
(assert (or p8_c2 p8_c3 p8_c4))
(check-sat)
(get-model)
